4 
5  35 50 
6  05 20 35 47 54 
7  02 10 16 24 31 39 46 54 
8  01 09 16 24 31 39 46 54 
9  01 09 16 24 31 39 46 54 
10  01 09 16 24 31 39 46 54 
11  01 09 16 24 31 39 46 54 
12  01 09 16 24 31 39 46 54 
13  01 09 16 25 33 40 47 55 
14  02 10 17 25 32 40 47 55 
15  02 10 17 25 32 39 47 54 
16  02 09 17 24 32 39 47 54 
17  02 09 17 24 32 39 47 54 
18  02 09 17 24 32 39 47 54 
19  02 09 17 23 30 37 46 54 
20  02 09 16 24 31 38 46 53 
21  06 21 36 51 
22  06 21 36 49 
23  04 16 27 
0 
